p tw 28 42
1 9
1 10
1 13
2 18
2 25
2 28
3 4
3 9
3 24
4 12
4 13
5 12
5 24
5 25
6 8
6 10
6 27
7 11
7 12
7 17
8 20
8 21
9 23
10 24
11 15
11 26
13 22
14 16
14 19
14 22
15 25
15 27
16 18
16 26
17 27
17 28
18 20
19 22
19 23
20 21
21 28
23 26
